DIMENSION: 12
EDGE_WEIGHT_TYPE: EXPLICIT
EDGE_WEIGHT_FORMAT: FULL_MATRIX
EDGE_WEIGHT_SECTION:
32767 34 50 32767 32767 32767 3 32767 32767 50 55 78 
34 32767 32767 32767 26 32767 100 32767 41 32767 32767 32767 
50 32767 32767 32767 32767 32767 46 48 32767 51 32767 26 
32767 32767 32767 32767 63 66 32767 32767 32767 32767 46 44 
32767 26 32767 63 32767 32767 32767 32767 32767 32767 32767 47 
32767 32767 32767 66 32767 32767 32767 32767 15 32767 32767 32767 
3 100 46 32767 32767 32767 32767 32767 32767 32767 7 56 
32767 32767 48 32767 32767 32767 32767 32767 95 32767 71 32767 
32767 41 32767 32767 32767 15 32767 95 32767 32767 32767 32767 
50 32767 51 32767 32767 32767 32767 32767 32767 32767 44 88 
55 32767 32767 46 32767 32767 7 71 32767 44 32767 72 
78 32767 26 44 47 32767 56 32767 32767 88 72 32767 
EOF